% Data for perfect square placement problem:
% http://www.hakank.org/minizinc/perfect_square_placement.mzn
% Data is originally from CSPLib:
% http://www.cs.st-andrews.ac.uk/~ianm/CSPLib/prob/prob009/results

% problem 205 
n = 644;
size = 25;
a = [7,9,13,18,19,22,31,49,53,61,66,68,71,87,93,94,119,164,178,192,199,206,227,239,253];

